Normalized Data/p03_14_normalized_splitx10_0.vrp
NAME:p03_14_NORMALIZED_splitx10_
BEST_KNOWN: 0
COMMENT: 0
DIMENSION: 407
CAPACITY: 1000
EDGE_WEIGHT_FORMAT: FUNCTION
EDGE_WEIGHT_TYPE: EXACT_2D
NODE_COORD_SECTION
1 0.00000 0.00000
2 -20 -47
3 -20 -47
4 -20 -47
5 47 -47
6 47 -47
7 5 44
8 5 44
9 5 44
10 -7 3
11 -7 3
12 -7 3
13 -7 3
14 -22 48
15 -22 48
16 -22 48
17 -22 48
18 -22 48
19 -36 -2
20 -36 -2
21 -36 -2
22 -36 -2
23 6 6
24 6 6
25 6 6
26 6 6
27 -7 -9
28 -7 -9
29 -7 -9
30 -7 -9
31 -7 -9
32 11 -37
33 11 -37
34 11 -37
35 -3 40
36 -3 40
37 -33 -6
38 -33 -6
39 -33 -6
40 -5 -8
41 -5 -8
42 -5 -8
43 -5 -8
44 -44 -42
45 -44 -42
46 -44 -42
47 -44 -42
48 -37 -34
49 -37 -34
50 -37 -34
51 -37 -34
52 44 -21
53 44 -21
54 44 -21
55 44 -21
56 44 -21
57 44 -21
58 -22 -36
59 -22 -36
60 -48 36
61 -48 36
62 -48 36
63 -10 30
64 -10 30
65 -10 30
66 -10 30
67 -10 30
68 42 40
69 42 40
70 42 40
71 42 40
72 42 40
73 36 6
74 36 6
75 36 6
76 36 6
77 42 20
78 27 3
79 27 3
80 27 3
81 27 3
82 27 3
83 -37 11
84 -37 11
85 -33 -3
86 -33 -3
87 -33 -3
88 -33 -3
89 -33 -3
90 -25 -40
91 -25 -40
92 -25 -40
93 -35 22
94 -35 22
95 -24 29
96 -24 29
97 -24 29
98 -24 29
99 -24 29
100 29 -15
101 29 -15
102 29 -15
103 29 -15
104 29 -15
105 9 8
106 9 8
107 9 8
108 9 8
109 47 13
110 47 13
111 47 13
112 47 13
113 -8 -1
114 -8 -1
115 -8 -1
116 -8 -1
117 -8 -1
118 -8 -1
119 -26 18
120 -26 18
121 -26 18
122 -26 18
123 -26 18
124 -26 18
125 -22 38
126 -22 38
127 -22 38
128 -32 10
129 -32 10
130 -32 10
131 0 47
132 0 47
133 0 47
134 30 -33
135 15 -24
136 15 -24
137 15 -24
138 -13 -23
139 -13 -23
140 -13 -23
141 -10 -44
142 -10 -44
143 -10 -44
144 -10 -44
145 -10 -44
146 -10 -44
147 39 -28
148 39 -28
149 39 -28
150 -47 -31
151 -47 -31
152 -47 -31
153 -47 -31
154 -47 -31
155 -3 -16
156 -3 -16
157 -3 -16
158 -3 -16
159 -3 -16
160 38 -30
161 38 -30
162 7 -26
163 7 -26
164 -48 -41
165 -48 -41
166 -48 -41
167 -48 -41
168 -48 -41
169 -48 -41
170 -48 -41
171 0 46
172 0 46
173 0 46
174 0 46
175 -44 34
176 -44 34
177 -44 34
178 -44 34
179 -44 34
180 -44 34
181 14 15
182 14 15
183 14 15
184 28 14
185 28 14
186 28 14
187 -38 -1
188 -38 -1
189 -38 -1
190 -38 -1
191 -38 -1
192 -38 -1
193 33 34
194 33 34
195 33 34
196 26 36
197 26 36
198 26 36
199 26 36
200 18 -16
201 18 -16
202 18 -16
203 18 -16
204 -39 17
205 -39 17
206 -39 17
207 -39 17
208 -39 17
209 -39 17
210 -28 3
211 -28 3
212 -28 3
213 -28 3
214 -28 3
215 -45 41
216 -45 41
217 -45 41
218 -26 -50
219 -26 -50
220 -26 -50
221 44 -8
222 44 -8
223 44 -8
224 13 9
225 13 9
226 13 9
227 13 9
228 3 -36
229 3 -36
230 3 -36
231 3 -36
232 3 -36
233 47 -35
234 47 -35
235 47 -35
236 47 -35
237 -47 43
238 -47 43
239 -47 43
240 -47 43
241 -47 43
242 -47 43
243 21 -19
244 21 -19
245 21 -19
246 21 -19
247 21 -19
248 -6 33
249 -6 33
250 -6 33
251 -6 33
252 -11 -27
253 -11 -27
254 -11 -27
255 34 -38
256 34 -38
257 34 -38
258 34 -38
259 44 -13
260 44 -13
261 44 -13
262 23 17
263 23 17
264 23 17
265 23 17
266 23 17
267 -18 -23
268 -18 -23
269 -18 -23
270 -18 -23
271 -18 -23
272 -49 12
273 -49 12
274 -49 12
275 -49 12
276 -49 12
277 -49 12
278 41 30
279 41 30
280 41 30
281 41 30
282 41 30
283 41 30
284 7 5
285 7 5
286 7 5
287 7 5
288 7 5
289 3 34
290 3 34
291 3 34
292 3 34
293 -27 -50
294 -27 -50
295 -27 -50
296 -27 -50
297 -27 -50
298 -27 -50
299 -46 -28
300 -46 -28
301 -46 -28
302 -46 -28
303 -46 -28
304 24 28
305 24 28
306 24 28
307 24 28
308 24 28
309 26 -23
310 26 -23
311 50 49
312 50 49
313 38 -8
314 38 -8
315 38 -8
316 38 -8
317 38 -8
318 14 38
319 14 38
320 14 38
321 14 38
322 14 38
323 14 38
324 14 38
325 -5 46
326 -5 46
327 -5 46
328 -5 46
329 -5 46
330 -5 46
331 39 -47
332 39 -47
333 39 -47
334 39 -47
335 1 29
336 1 29
337 1 29
338 -14 -13
339 -14 -13
340 -14 -13
341 -14 -13
342 11 42
343 11 42
344 11 42
345 11 42
346 11 42
347 11 -48
348 11 -48
349 11 -48
350 11 -48
351 11 -48
352 -44 -48
353 -44 -48
354 -44 -48
355 -44 -48
356 -37 23
357 -37 23
358 -37 23
359 -37 23
360 -37 23
361 -37 23
362 46 48
363 46 48
364 46 48
365 46 48
366 46 48
367 -28 16
368 -28 16
369 -28 16
370 -29 10
371 -29 10
372 -29 10
373 -29 10
374 -29 10
375 -42 -30
376 -42 -30
377 -42 -30
378 -6 -2
379 -6 -2
380 -6 -2
381 -6 -2
382 -10 32
383 -10 32
384 -10 32
385 -10 32
386 -10 32
387 -10 32
388 -10 32
389 48 -37
390 48 -37
391 48 -37
392 -16 -25
393 -16 -25
394 -16 -25
395 1 11
396 1 11
397 40 34
398 40 34
399 40 34
400 40 34
401 10 -9
402 10 -9
403 10 -9
404 10 -9
405 10 -9
406 10 -9
407 -20 44
DEMAND_SECTION
1 0
2 200
3 200
4 50
5 100
6 50
7 200
8 200
9 50
10 100
11 50
12 10
13 10
14 200
15 10
16 10
17 10
18 10
19 200
20 100
21 50
22 10
23 200
24 50
25 10
26 10
27 200
28 200
29 50
30 10
31 10
32 200
33 100
34 50
35 200
36 200
37 100
38 50
39 10
40 100
41 10
42 10
43 10
44 200
45 10
46 10
47 10
48 200
49 50
50 10
51 10
52 200
53 200
54 50
55 10
56 10
57 10
58 200
59 50
60 200
61 10
62 10
63 100
64 50
65 10
66 10
67 10
68 100
69 10
70 10
71 10
72 10
73 200
74 100
75 50
76 10
77 200
78 100
79 50
80 10
81 10
82 10
83 200
84 100
85 200
86 100
87 50
88 10
89 10
90 200
91 50
92 10
93 100
94 50
95 200
96 200
97 50
98 10
99 10
100 200
101 100
102 50
103 10
104 10
105 200
106 10
107 10
108 10
109 200
110 200
111 50
112 10
113 200
114 200
115 50
116 10
117 10
118 10
119 200
120 50
121 10
122 10
123 10
124 10
125 200
126 50
127 10
128 200
129 100
130 10
131 200
132 100
133 10
134 200
135 200
136 50
137 10
138 200
139 200
140 50
141 100
142 50
143 10
144 10
145 10
146 10
147 200
148 100
149 50
150 100
151 10
152 10
153 10
154 10
155 200
156 100
157 50
158 10
159 10
160 200
161 200
162 200
163 200
164 200
165 200
166 50
167 10
168 10
169 10
170 10
171 100
172 50
173 10
174 10
175 200
176 100
177 10
178 10
179 10
180 10
181 100
182 50
183 10
184 100
185 50
186 10
187 100
188 50
189 10
190 10
191 10
192 10
193 200
194 200
195 10
196 200
197 10
198 10
199 10
200 100
201 10
202 10
203 10
204 100
205 50
206 10
207 10
208 10
209 10
210 200
211 200
212 10
213 10
214 10
215 100
216 10
217 10
218 200
219 50
220 10
221 200
222 200
223 100
224 100
225 50
226 10
227 10
228 100
229 50
230 10
231 10
232 10
233 200
234 50
235 10
236 10
237 200
238 100
239 50
240 10
241 10
242 10
243 100
244 50
245 10
246 10
247 10
248 200
249 100
250 50
251 10
252 100
253 10
254 10
255 200
256 100
257 10
258 10
259 200
260 200
261 50
262 100
263 10
264 10
265 10
266 10
267 200
268 100
269 10
270 10
271 10
272 200
273 100
274 50
275 10
276 10
277 10
278 200
279 100
280 50
281 10
282 10
283 10
284 200
285 100
286 10
287 10
288 10
289 200
290 100
291 10
292 10
293 200
294 50
295 10
296 10
297 10
298 10
299 200
300 100
301 50
302 10
303 10
304 200
305 200
306 50
307 10
308 10
309 100
310 50
311 200
312 50
313 200
314 100
315 50
316 10
317 10
318 200
319 200
320 50
321 10
322 10
323 10
324 10
325 200
326 50
327 10
328 10
329 10
330 10
331 100
332 50
333 10
334 10
335 100
336 10
337 10
338 100
339 10
340 10
341 10
342 200
343 200
344 50
345 10
346 10
347 200
348 100
349 10
350 10
351 10
352 200
353 200
354 10
355 10
356 200
357 200
358 10
359 10
360 10
361 10
362 100
363 50
364 10
365 10
366 10
367 200
368 200
369 10
370 100
371 10
372 10
373 10
374 10
375 200
376 200
377 10
378 100
379 10
380 10
381 10
382 200
383 200
384 50
385 10
386 10
387 10
388 10
389 200
390 100
391 50
392 100
393 50
394 10
395 200
396 100
397 200
398 200
399 10
400 10
401 200
402 200
403 50
404 10
405 10
406 10
407 200
DEPOT_SECTION
1
-1
EOF