Normalized Data/p03_14_normalized_splitx10_0.sol
406 -9 203 206 208 207 205 204 274 271 275 273 276 272 83 82 373 372 370 -12 10 11 368 367 118 121 122 97 98 94 96 95 -22 23 25 287 283 285 284 104 106 105 394 -24 193 194 192 362 361 363 365 364 310 311 69 67 68 71 70 107 -28 91 89 90 1 3 2 143 140 141 145 144 142 -30 26 29 27 114 115 116 113 112 117 377 -32 31 33 348 347 349 350 346 228 231 230 229 227 -37 38 36 84 88 85 87 86 212 211 209 213 210 -40 42 39 41 139 138 137 154 157 155 156 158 -47 48 49 50 43 46 45 44 167 168 169 165 164 163 166 -62 66 65 64 63 387 383 381 385 386 384 382 248 250 247 -72 73 75 74 108 110 109 111 183 185 184 -76 277 281 280 282 279 278 397 396 398 399 -100 55 51 54 56 52 53 146 147 308 -103 102 99 101 312 313 315 314 316 81 79 80 77 78 223 226 225 224 286 -119 123 120 92 93 178 176 177 60 61 59 236 240 237 239 238 241 216 214 215 -124 126 125 406 13 14 17 15 16 325 326 329 327 324 328 -133 255 257 254 256 159 160 309 -148 233 234 232 235 390 389 388 5 4 330 331 332 333 -161 162 135 136 134 242 243 246 245 244 199 201 202 200 -170 171 173 172 130 132 131 8 7 6 291 290 -179 175 174 356 358 355 359 357 360 366 -182 180 181 196 197 195 198 306 305 307 304 303 261 262 264 263 265 -217 219 218 295 292 293 297 294 296 351 354 353 352 268 270 -222 221 220 259 258 260 -249 35 34 289 288 334 336 335 395 -251 252 253 57 58 391 393 392 266 269 267 338 340 339 337 -299 300 301 298 302 149 152 151 150 153 375 376 374 -319 317 323 318 322 321 320 344 345 341 343 342 -369 371 128 129 127 190 187 191 188 186 189 21 20 19 18 379 380 378 -402 400 401 403 404 405 0 





OBJ=
2932.481
BEST_KNOWN=
0.000